StudentsNr = 10;
InstructorsNr = 56;
DaysNr = 1;
SlotsPerDay = 20;
AvailabilitySlotsLenght = 1;
RoomNr = 2;
ProgrammNr = 2;
DegreeNr = 2;
RolesNr = 3;
CoursesNr = 9;
InstructorsProgramm = [{1}, {1, 2}, {2}, {1}, {2}, {1}, {1, 2}, {2}, {1}, {2}, {2}, {1}, {1}, {1, 2}, {1, 2}, {1}, {1}, {1}, {2}, {2}, {2}, {1}, {2}, {1}, {1, 2}, {1}, {2}, {1, 2}, {1, 2}, {1}, {1}, {1, 2}, {2}, {1, 2}, {1, 2}, {2}, {1}, {2}, {2}, {1}, {2}, {1, 2}, {2}, {1}, {2}, {1, 2}, {2}, {1}, {1}, {1}, {1}, {2}, {1, 2}, {1, 2}, {1}, {1}];
InstructorRolesPerProgramm = [|{13, 17, 22, 28, 31, 32, 40, 42, 44, 48, 54, 56}, {1, 4, 12, 13, 22, 24, 28, 32, 35, 40, 48, 49, 54, 56}, {4, 7, 13, 18, 25, 26, 28, 34, 42, 46, 49, 51, 53, 54, 55, 56}|{3, 8, 10, 19, 28, 32, 42, 52, 54}, {5, 10, 11, 19, 21, 23, 28, 32, 35, 38, 45, 47, 52, 54}, {3, 7, 19, 21, 25, 27, 28, 34, 38, 41, 42, 43, 45, 46, 53, 54}|];
InstructorsAvailability = [|0, 1, 1, 1, 1, 1, 1, 1, 1, 1, 0, 0, 1, 1, 1, 1, 1, 1, 0, 0, |0, 1, 1, 1, 0, 0, 1, 1, 1, 1, 0, 1, 1, 1, 1, 0, 1, 1, 1, 1, |1, 0, 1, 1, 0, 1, 1, 1, 1, 1, 1, 1, 1, 1, 1, 1, 1, 1, 1, 1, |0, 1, 1, 1, 1, 1, 1, 1, 1, 1, 1, 1, 1, 1, 1, 1, 1, 1, 1, 1, |0, 1, 1, 0, 1, 1, 1, 1, 1, 1, 1, 1, 1, 1, 1, 1, 1, 1, 0, 0, |0, 1, 1, 1, 1, 1, 1, 1, 1, 1, 1, 1, 1, 1, 1, 0, 0, 1, 1, 1, |0, 1, 1, 1, 1, 0, 1, 1, 1, 1, 1, 1, 1, 1, 0, 0, 1, 1, 1, 1, |1, 1, 1, 1, 1, 1, 1, 1, 1, 1, 1, 1, 1, 1, 1, 1, 1, 1, 1, 1, |0, 1, 1, 1, 1, 0, 0, 1, 1, 1, 1, 1, 0, 0, 1, 1, 0, 0, 0, 0, |1, 1, 1, 1, 0, 1, 0, 0, 0, 0, 0, 0, 0, 1, 1, 1, 1, 1, 1, 1, |1, 1, 1, 1, 0, 0, 1, 0, 0, 0, 0, 1, 0, 1, 0, 0, 1, 0, 1, 0, |0, 0, 0, 0, 1, 1, 1, 1, 1, 1, 0, 1, 1, 1, 0, 0, 0, 0, 1, 1, |1, 1, 1, 1, 1, 1, 1, 1, 1, 1, 1, 1, 1, 1, 1, 1, 1, 1, 1, 1, |0, 1, 1, 1, 1, 1, 0, 1, 1, 1, 1, 1, 1, 1, 1, 1, 1, 1, 1, 0, |1, 1, 1, 1, 1, 0, 1, 1, 1, 1, 1, 0, 1, 1, 1, 0, 1, 1, 1, 1, |0, 0, 0, 0, 0, 1, 1, 1, 1, 1, 1, 1, 1, 1, 1, 0, 1, 1, 1, 1, |1, 1, 1, 1, 0, 0, 1, 1, 1, 1, 1, 1, 1, 0, 1, 1, 1, 1, 1, 1, |0, 0, 0, 0, 1, 1, 1, 1, 1, 1, 1, 1, 1, 1, 1, 1, 1, 1, 1, 1, |1, 1, 1, 1, 1, 1, 1, 1, 0, 1, 0, 1, 1, 1, 0, 0, 1, 1, 0, 1, |1, 1, 1, 1, 1, 0, 0, 1, 1, 1, 1, 1, 1, 1, 1, 1, 1, 1, 1, 1, |0, 0, 1, 1, 0, 1, 1, 0, 1, 1, 1, 1, 1, 1, 1, 0, 1, 1, 1, 1, |0, 0, 0, 1, 0, 1, 1, 1, 0, 0, 0, 1, 1, 1, 1, 1, 1, 1, 1, 1, |0, 1, 1, 1, 1, 1, 1, 0, 1, 1, 1, 1, 1, 1, 0, 1, 1, 1, 1, 1, |0, 1, 1, 1, 1, 1, 0, 1, 0, 1, 0, 0, 0, 1, 1, 0, 1, 1, 1, 1, |0, 0, 0, 0, 1, 1, 0, 1, 1, 1, 1, 1, 1, 1, 1, 1, 1, 1, 1, 1, |1, 1, 1, 1, 1, 1, 1, 1, 1, 1, 1, 1, 1, 1, 1, 1, 1, 0, 1, 1, |0, 1, 1, 1, 1, 1, 1, 1, 1, 1, 1, 1, 1, 1, 1, 1, 1, 1, 1, 1, |0, 1, 1, 1, 0, 1, 1, 0, 1, 1, 1, 1, 1, 1, 0, 0, 1, 1, 1, 1, |1, 1, 1, 1, 0, 1, 1, 1, 1, 1, 1, 1, 1, 1, 1, 1, 1, 0, 1, 1, |1, 1, 1, 0, 1, 1, 0, 1, 0, 0, 1, 1, 0, 0, 0, 0, 0, 0, 0, 1, |1, 1, 1, 1, 1, 1, 1, 1, 1, 0, 0, 1, 1, 1, 1, 1, 0, 0, 1, 1, |0, 0, 0, 1, 1, 1, 0, 1, 1, 1, 1, 1, 0, 0, 1, 1, 1, 1, 1, 1, |0, 1, 0, 0, 1, 0, 0, 1, 1, 1, 1, 1, 1, 1, 0, 1, 1, 1, 1, 1, |1, 1, 1, 1, 1, 1, 1, 0, 1, 1, 1, 1, 1, 1, 1, 1, 1, 1, 1, 1, |1, 1, 0, 1, 1, 1, 1, 1, 1, 0, 1, 1, 1, 1, 1, 1, 1, 1, 1, 1, |1, 1, 1, 1, 1, 1, 1, 1, 1, 1, 0, 0, 1, 0, 1, 1, 1, 1, 1, 1, |0, 0, 0, 1, 1, 0, 1, 1, 1, 0, 1, 1, 1, 1, 1, 0, 0, 0, 0, 1, |1, 0, 1, 1, 1, 1, 1, 1, 1, 0, 1, 1, 0, 0, 1, 1, 1, 1, 1, 1, |1, 1, 1, 1, 1, 1, 0, 0, 0, 0, 1, 1, 1, 1, 1, 1, 0, 1, 1, 1, |1, 1, 1, 1, 1, 1, 1, 1, 1, 1, 1, 0, 1, 1, 1, 1, 1, 1, 1, 1, |1, 0, 0, 1, 1, 1, 1, 0, 0, 0, 1, 1, 1, 0, 1, 0, 0, 1, 1, 0, |0, 1, 1, 1, 1, 1, 1, 1, 1, 1, 1, 1, 1, 1, 0, 0, 1, 1, 1, 1, |0, 0, 1, 1, 1, 1, 1, 1, 1, 1, 1, 1, 1, 1, 1, 0, 1, 1, 1, 1, |0, 0, 0, 1, 1, 1, 1, 1, 1, 1, 1, 1, 1, 1, 1, 1, 1, 1, 1, 1, |1, 1, 1, 1, 1, 1, 1, 1, 1, 1, 1, 1, 1, 1, 0, 1, 1, 0, 1, 1, |1, 0, 0, 1, 1, 1, 1, 1, 1, 1, 1, 1, 1, 1, 1, 0, 1, 1, 0, 1, |1, 1, 1, 1, 1, 1, 1, 1, 1, 1, 1, 1, 1, 1, 1, 1, 0, 0, 0, 0, |0, 0, 0, 0, 1, 1, 1, 0, 1, 1, 1, 1, 1, 1, 1, 1, 1, 1, 1, 1, |0, 0, 0, 1, 1, 1, 1, 1, 1, 1, 1, 1, 1, 1, 1, 1, 1, 1, 1, 1, |1, 1, 1, 1, 0, 0, 1, 1, 1, 1, 0, 1, 1, 1, 1, 1, 1, 1, 1, 1, |0, 0, 1, 1, 1, 1, 1, 1, 1, 1, 1, 1, 1, 1, 1, 0, 1, 1, 0, 1, |1, 0, 0, 1, 1, 1, 1, 1, 1, 0, 0, 1, 1, 1, 0, 1, 0, 1, 0, 0, |0, 1, 1, 1, 0, 0, 1, 1, 1, 0, 1, 1, 1, 1, 1, 0, 0, 1, 1, 1, |1, 1, 1, 1, 1, 1, 1, 1, 1, 1, 1, 1, 0, 0, 0, 0, 1, 1, 1, 1, |1, 1, 1, 1, 0, 0, 1, 0, 1, 1, 1, 1, 1, 1, 0, 1, 1, 1, 1, 1, |0, 1, 1, 0, 0, 1, 0, 0, 1, 1, 1, 1, 1, 1, 1, 1, 1, 1, 1, 1|];
StudentsProgramm = [1, 1, 2, 1, 2, 2, 1, 2, 1, 2];
StudentsDegree = [1, 1, 1, 1, 2, 1, 2, 1, 2, 1];
StudentsSupervisorId = [14, 50, 15, 32, 7, 42, 49, 39, 18, 20];
StudentsCourseIds = [{1, 2, 4, 6, 7, 9}, {1, 2, 3, 5, 6, 9}, {1, 2, 3, 5, 7, 9}, {2, 3, 4, 5, 6, 8}, {1, 2, 3, 4, 5, 6, 8, 9}, {1, 2, 4, 5, 6, 7}, {1, 2, 3, 4, 5, 7, 8, 9}, {2, 3, 4, 5, 6, 8}, {1, 2, 3, 4, 5, 6, 7, 8}, {1, 3, 4, 5, 6, 9}];
StudentsAvailability = [|0, 0, 1, 0, 1, 1, 1, 0, 1, 0, 1, 1, 1, 1, 1, 1, 1, 1, 1, 1, |1, 1, 1, 0, 1, 1, 1, 1, 1, 1, 1, 1, 1, 1, 1, 1, 1, 1, 1, 1, |1, 0, 0, 1, 1, 0, 0, 1, 1, 1, 1, 1, 1, 1, 0, 1, 0, 0, 1, 1, |1, 1, 0, 1, 1, 1, 1, 1, 1, 0, 1, 1, 1, 1, 1, 1, 1, 1, 0, 0, |0, 1, 1, 1, 1, 1, 1, 1, 1, 1, 1, 1, 1, 1, 1, 1, 1, 1, 1, 1, |0, 1, 1, 1, 0, 1, 1, 1, 0, 0, 1, 0, 1, 1, 0, 1, 1, 0, 0, 1, |0, 0, 1, 0, 0, 1, 1, 1, 1, 1, 1, 0, 0, 0, 0, 0, 1, 1, 1, 1, |0, 1, 1, 1, 1, 1, 1, 1, 1, 1, 1, 1, 1, 1, 1, 1, 1, 1, 1, 1, |1, 1, 1, 1, 1, 1, 1, 1, 1, 1, 0, 0, 1, 1, 1, 1, 1, 1, 1, 1, |0, 1, 1, 0, 1, 1, 1, 1, 1, 0, 1, 1, 1, 1, 1, 1, 1, 1, 1, 1|];
TheoryticalMinCard = [0, 0, 0, 0, 0, 0, 0, 1, 0, 0];
CoursesInstructorIds = [{15, 16, 17, 18, 29, 31, 34, 38, 48, 55}, {4, 5, 12, 13, 14, 15, 16, 29, 30, 31, 33, 36, 43, 44, 47, 48, 52, 55}, {7, 8, 10, 12, 13, 15, 18, 19, 20, 21, 24, 25, 26, 27, 29, 30, 34, 37, 38, 43, 44, 49, 52, 54, 55, 56}, {3, 4, 5, 6, 8, 9, 11, 12, 15, 17, 18, 19, 21, 22, 23, 24, 25, 26, 27, 30, 31, 35, 38, 40, 42, 45, 49, 50, 51, 52, 53, 54, 55, 56}, {2, 4, 6, 7, 8, 13, 28, 30, 50, 51}, {6, 14, 19, 20, 23, 24, 26, 34, 40, 42, 44, 50}, {3, 4, 5, 9, 10, 11, 12, 13, 16, 17, 19, 25, 29, 32, 34, 35, 37, 38, 40, 45, 46, 49, 50, 52, 53, 54, 55}, {2, 6, 8, 9, 10, 14, 15, 18, 22, 23, 24, 25, 30, 31, 34, 38, 41, 42, 47, 49, 53, 54, 56}, {1, 2, 3, 5, 7, 8, 13, 14, 15, 17, 18, 21, 24, 26, 27, 29, 31, 32, 33, 34, 35, 37, 38, 39, 40, 41, 43, 47, 50, 53, 54, 55, 56}];
RolesDemands = [8, 4, 8];
RolesContinuity = [1];
ExamLen = [2, 2, 2, 2, 1, 2, 1, 2, 1, 2];
LunchTsMinLen = 0;
LunchStarts = [8..12];
SupervisorAvailable = 0;
OptimalLunchLenght = [1, 0];
OptimalStartTs = [0, 0];
OptimalFinishTs = [2, 20];
MinimizeRooms = 500;
RolesSoftContinuity = [|1, 2, 3|0, 2, 1|];
SameDegreeInRoom = 0;
Mergeability = 1;
